
Gurobi 11.0.2 (linux64, gurobi_cl) logging started Tue Jun 11 00:19:35 2024

Set parameter Username
Set parameter LogFile to value "gurobi.log"
Using license file /opt/gurobi1102/gurobi.lic

Gurobi 11.0.2 (linux64, gurobi_cl) logging started Tue Jun 11 00:20:03 2024

Set parameter Username
Set parameter LogFile to value "gurobi.log"
Using license file /opt/gurobi1102/gurobi.lic

Gurobi 11.0.2 (linux64, gurobi_cl) logging started Tue Jun 11 00:20:34 2024

Set parameter Username
Set parameter LogFile to value "gurobi.log"
Using license file /opt/gurobi1102/gurobi.lic
